Problem:    caramelle
Rows:       10
Columns:    70
Non-zeros:  126
Status:     OPTIMAL
Objective:  z = 862.5537041 (MAXimum)

   No.   Row name   St   Activity     Lower bound   Upper bound    Marginal
------ ------------ -- ------------- ------------- ------------- -------------
     1 proporzioni_ingredienti[Fruttosio]
                    B        8.83401                           9 
     2 proporzioni_ingredienti[Saccarosio]
                    NU             5                           5       4.73399 
     3 proporzioni_ingredienti[Glucosio]
                    NU            20                          20       14.8591 
     4 proporzioni_ingredienti[Destrosio]
                    NU            18                          18       3.91822 
     5 proporzioni_ingredienti[Estratti_di_erbe]
                    NU            20                          20       2.12809 
     6 proporzioni_ingredienti[Estratti_di_frutta]
                    NU            17                          17       14.4563 
     7 proporzioni_ingredienti[Coloranti]
                    NU          18.4                        18.4       9.93776 
     8 proporzioni_ingredienti[Conservanti]
                    B        12.1684                        12.5 
     9 proporzioni_ingredienti[Aromatizzanti]
                    B        9.70094                          10 
    10 z            B        862.554                             

   No. Column name  St   Activity     Lower bound   Upper bound    Marginal
------ ------------ -- ------------- ------------- ------------- -------------
     1 x[Dolce]     B        3.70126             0               
     2 x[Delizia]   NL             0             0                    -3.13508 
     3 x[Bacetto]   B        56.0145             0               
     4 x[Golosa]    B        16.5782             0               
     5 x[Sfizio]    B         23.739             0               
     6 x[Slurp]     B        13.2632             0               
     7 x[Sweety]    B        15.8073             0               
     8 y[Fruttosio,Dolce]
                    NL             0             0                          -4 
     9 y[Fruttosio,Delizia]
                    NL             0             0                          -4 
    10 y[Fruttosio,Bacetto]
                    NL             0             0                          -4 
    11 y[Fruttosio,Golosa]
                    NL             0             0                          -4 
    12 y[Fruttosio,Sfizio]
                    NL             0             0                          -4 
    13 y[Fruttosio,Slurp]
                    NL             0             0                          -4 
    14 y[Fruttosio,Sweety]
                    NL             0             0                          -4 
    15 y[Saccarosio,Dolce]
                    NL             0             0                          -2 
    16 y[Saccarosio,Delizia]
                    NL             0             0                          -2 
    17 y[Saccarosio,Bacetto]
                    NL             0             0                          -2 
    18 y[Saccarosio,Golosa]
                    NL             0             0                          -2 
    19 y[Saccarosio,Sfizio]
                    NL             0             0                          -2 
    20 y[Saccarosio,Slurp]
                    NL             0             0                          -2 
    21 y[Saccarosio,Sweety]
                    NL             0             0                          -2 
    22 y[Glucosio,Dolce]
                    NL             0             0                          -1 
    23 y[Glucosio,Delizia]
                    NL             0             0                          -1 
    24 y[Glucosio,Bacetto]
                    NL             0             0                          -1 
    25 y[Glucosio,Golosa]
                    NL             0             0                          -1 
    26 y[Glucosio,Sfizio]
                    NL             0             0                          -1 
    27 y[Glucosio,Slurp]
                    NL             0             0                          -1 
    28 y[Glucosio,Sweety]
                    NL             0             0                          -1 
    29 y[Destrosio,Dolce]
                    NL             0             0                        -3.5 
    30 y[Destrosio,Delizia]
                    NL             0             0                        -3.5 
    31 y[Destrosio,Bacetto]
                    NL             0             0                        -3.5 
    32 y[Destrosio,Golosa]
                    NL             0             0                        -3.5 
    33 y[Destrosio,Sfizio]
                    NL             0             0                        -3.5 
    34 y[Destrosio,Slurp]
                    NL             0             0                        -3.5 
    35 y[Destrosio,Sweety]
                    NL             0             0                        -3.5 
    36 y[Estratti_di_erbe,Dolce]
                    NL             0             0                          -8 
    37 y[Estratti_di_erbe,Delizia]
                    NL             0             0                          -8 
    38 y[Estratti_di_erbe,Bacetto]
                    NL             0             0                          -8 
    39 y[Estratti_di_erbe,Golosa]
                    NL             0             0                          -8 
    40 y[Estratti_di_erbe,Sfizio]
                    NL             0             0                          -8 
    41 y[Estratti_di_erbe,Slurp]
                    NL             0             0                          -8 
    42 y[Estratti_di_erbe,Sweety]
                    NL             0             0                          -8 
    43 y[Estratti_di_frutta,Dolce]
                    NL             0             0                         -10 
    44 y[Estratti_di_frutta,Delizia]
                    NL             0             0                         -10 
    45 y[Estratti_di_frutta,Bacetto]
                    NL             0             0                         -10 
    46 y[Estratti_di_frutta,Golosa]
                    NL             0             0                         -10 
    47 y[Estratti_di_frutta,Sfizio]
                    NL             0             0                         -10 
    48 y[Estratti_di_frutta,Slurp]
                    NL             0             0                         -10 
    49 y[Estratti_di_frutta,Sweety]
                    NL             0             0                         -10 
    50 y[Coloranti,Dolce]
                    NL             0             0                          -2 
    51 y[Coloranti,Delizia]
                    NL             0             0                          -2 
    52 y[Coloranti,Bacetto]
                    NL             0             0                          -2 
    53 y[Coloranti,Golosa]
                    NL             0             0                          -2 
    54 y[Coloranti,Sfizio]
                    NL             0             0                          -2 
    55 y[Coloranti,Slurp]
                    NL             0             0                          -2 
    56 y[Coloranti,Sweety]
                    NL             0             0                          -2 
    57 y[Conservanti,Dolce]
                    NL             0             0                          -5 
    58 y[Conservanti,Delizia]
                    NL             0             0                          -5 
    59 y[Conservanti,Bacetto]
                    NL             0             0                          -5 
    60 y[Conservanti,Golosa]
                    NL             0             0                          -5 
    61 y[Conservanti,Sfizio]
                    NL             0             0                          -5 
    62 y[Conservanti,Slurp]
                    NL             0             0                          -5 
    63 y[Conservanti,Sweety]
                    NL             0             0                          -5 
    64 y[Aromatizzanti,Dolce]
                    NL             0             0                          -6 
    65 y[Aromatizzanti,Delizia]
                    NL             0             0                          -6 
    66 y[Aromatizzanti,Bacetto]
                    NL             0             0                          -6 
    67 y[Aromatizzanti,Golosa]
                    NL             0             0                          -6 
    68 y[Aromatizzanti,Sfizio]
                    NL             0             0                          -6 
    69 y[Aromatizzanti,Slurp]
                    NL             0             0                          -6 
    70 y[Aromatizzanti,Sweety]
                    NL             0             0                          -6 

Karush-Kuhn-Tucker optimality conditions:

KKT.PE: max.abs.err = 3.55e-15 on row 3
        max.rel.err = 1.02e-16 on row 6
        High quality

KKT.PB: max.abs.err = 0.00e+00 on row 0
        max.rel.err = 0.00e+00 on row 0
        High quality

KKT.DE: max.abs.err = 1.78e-15 on column 3
        max.rel.err = 1.37e-16 on column 5
        High quality

KKT.DB: max.abs.err = 0.00e+00 on row 0
        max.rel.err = 0.00e+00 on row 0
        High quality

End of output
